(set-logic QF_LRA)
(declare-fun T1 () Real )
(declare-fun T2 () Real )
(declare-fun T3 () Real )
(declare-fun T4 () Real )
(declare-fun T5 () Real )
(declare-fun T6 () Real )
(declare-fun T7 () Real )
(declare-fun T8 () Real )
(declare-fun Z () Real )
(assert ( and 
(or ( <= ( + T1 9 ) T2 ) ( <= ( + T2 24 ) T1 ) )
(or ( <= ( + T1 94 )  ( + T2 24 ) ) ( <= ( + T2 74 )( + T1 9 ) ) )
(or ( <= ( + T1 118 )  ( + T2 74 ) ) ( <= ( + T2 133 )( + T1 94 ) ) )
(or ( <= ( + T1 198 )  ( + T2 133 ) ) ( <= ( + T2 182 )( + T1 118 ) ) )
(or ( <= ( + T1 209 )  ( + T2 182 ) ) ( <= ( + T2 265 )( + T1 198 ) ) )
(or ( <= ( + T1 253 )  ( + T2 265 ) ) ( <= ( + T2 283 )( + T1 209 ) ) )
(or ( <= ( + T1 9 ) T3 ) ( <= ( + T3 78 ) T1 ) )
(or ( <= ( + T1 94 )  ( + T3 78 ) ) ( <= ( + T3 115 )( + T1 9 ) ) )
(or ( <= ( + T1 118 )  ( + T3 115 ) ) ( <= ( + T3 153 )( + T1 94 ) ) )
(or ( <= ( + T1 198 )  ( + T3 153 ) ) ( <= ( + T3 187 )( + T1 118 ) ) )
(or ( <= ( + T1 209 )  ( + T3 187 ) ) ( <= ( + T3 250 )( + T1 198 ) ) )
(or ( <= ( + T1 253 )  ( + T3 250 ) ) ( <= ( + T3 304 )( + T1 209 ) ) )
(or ( <= ( + T1 9 ) T4 ) ( <= ( + T4 80 ) T1 ) )
(or ( <= ( + T1 94 )  ( + T4 80 ) ) ( <= ( + T4 89 )( + T1 9 ) ) )
(or ( <= ( + T1 118 )  ( + T4 89 ) ) ( <= ( + T4 178 )( + T1 94 ) ) )
(or ( <= ( + T1 198 )  ( + T4 178 ) ) ( <= ( + T4 196 )( + T1 118 ) ) )
(or ( <= ( + T1 209 )  ( + T4 196 ) ) ( <= ( + T4 227 )( + T1 198 ) ) )
(or ( <= ( + T1 253 )  ( + T4 227 ) ) ( <= ( + T4 264 )( + T1 209 ) ) )
(or ( <= ( + T1 9 ) T5 ) ( <= ( + T5 85 ) T1 ) )
(or ( <= ( + T1 94 )  ( + T5 85 ) ) ( <= ( + T5 152 )( + T1 9 ) ) )
(or ( <= ( + T1 118 )  ( + T5 152 ) ) ( <= ( + T5 201 )( + T1 94 ) ) )
(or ( <= ( + T1 198 )  ( + T5 201 ) ) ( <= ( + T5 257 )( + T1 118 ) ) )
(or ( <= ( + T1 209 )  ( + T5 257 ) ) ( <= ( + T5 347 )( + T1 198 ) ) )
(or ( <= ( + T1 253 )  ( + T5 347 ) ) ( <= ( + T5 407 )( + T1 209 ) ) )
(or ( <= ( + T1 9 ) T6 ) ( <= ( + T6 83 ) T1 ) )
(or ( <= ( + T1 94 )  ( + T6 83 ) ) ( <= ( + T6 134 )( + T1 9 ) ) )
(or ( <= ( + T1 118 )  ( + T6 134 ) ) ( <= ( + T6 231 )( + T1 94 ) ) )
(or ( <= ( + T1 198 )  ( + T6 231 ) ) ( <= ( + T6 289 )( + T1 118 ) ) )
(or ( <= ( + T1 209 )  ( + T6 289 ) ) ( <= ( + T6 319 )( + T1 198 ) ) )
(or ( <= ( + T1 253 )  ( + T6 319 ) ) ( <= ( + T6 378 )( + T1 209 ) ) )
(or ( <= ( + T1 9 ) T7 ) ( <= ( + T7 53 ) T1 ) )
(or ( <= ( + T1 94 )  ( + T7 53 ) ) ( <= ( + T7 58 )( + T1 9 ) ) )
(or ( <= ( + T1 118 )  ( + T7 58 ) ) ( <= ( + T7 66 )( + T1 94 ) ) )
(or ( <= ( + T1 198 )  ( + T7 66 ) ) ( <= ( + T7 77 )( + T1 118 ) ) )
(or ( <= ( + T1 209 )  ( + T7 77 ) ) ( <= ( + T7 130 )( + T1 198 ) ) )
(or ( <= ( + T1 253 )  ( + T7 130 ) ) ( <= ( + T7 172 )( + T1 209 ) ) )
(or ( <= ( + T1 9 ) T8 ) ( <= ( + T8 29 ) T1 ) )
(or ( <= ( + T1 94 )  ( + T8 29 ) ) ( <= ( + T8 112 )( + T1 9 ) ) )
(or ( <= ( + T1 118 )  ( + T8 112 ) ) ( <= ( + T8 191 )( + T1 94 ) ) )
(or ( <= ( + T1 198 )  ( + T8 191 ) ) ( <= ( + T8 209 )( + T1 118 ) ) )
(or ( <= ( + T1 209 )  ( + T8 209 ) ) ( <= ( + T8 225 )( + T1 198 ) ) )
(or ( <= ( + T1 253 )  ( + T8 225 ) ) ( <= ( + T8 318 )( + T1 209 ) ) )
(or ( <= ( + T2 24 ) T3 ) ( <= ( + T3 78 ) T2 ) )
(or ( <= ( + T2 74 )  ( + T3 78 ) ) ( <= ( + T3 115 )( + T2 24 ) ) )
(or ( <= ( + T2 133 )  ( + T3 115 ) ) ( <= ( + T3 153 )( + T2 74 ) ) )
(or ( <= ( + T2 182 )  ( + T3 153 ) ) ( <= ( + T3 187 )( + T2 133 ) ) )
(or ( <= ( + T2 265 )  ( + T3 187 ) ) ( <= ( + T3 250 )( + T2 182 ) ) )
(or ( <= ( + T2 283 )  ( + T3 250 ) ) ( <= ( + T3 304 )( + T2 265 ) ) )
(or ( <= ( + T2 24 ) T4 ) ( <= ( + T4 80 ) T2 ) )
(or ( <= ( + T2 74 )  ( + T4 80 ) ) ( <= ( + T4 89 )( + T2 24 ) ) )
(or ( <= ( + T2 133 )  ( + T4 89 ) ) ( <= ( + T4 178 )( + T2 74 ) ) )
(or ( <= ( + T2 182 )  ( + T4 178 ) ) ( <= ( + T4 196 )( + T2 133 ) ) )
(or ( <= ( + T2 265 )  ( + T4 196 ) ) ( <= ( + T4 227 )( + T2 182 ) ) )
(or ( <= ( + T2 283 )  ( + T4 227 ) ) ( <= ( + T4 264 )( + T2 265 ) ) )
(or ( <= ( + T2 24 ) T5 ) ( <= ( + T5 85 ) T2 ) )
(or ( <= ( + T2 74 )  ( + T5 85 ) ) ( <= ( + T5 152 )( + T2 24 ) ) )
(or ( <= ( + T2 133 )  ( + T5 152 ) ) ( <= ( + T5 201 )( + T2 74 ) ) )
(or ( <= ( + T2 182 )  ( + T5 201 ) ) ( <= ( + T5 257 )( + T2 133 ) ) )
(or ( <= ( + T2 265 )  ( + T5 257 ) ) ( <= ( + T5 347 )( + T2 182 ) ) )
(or ( <= ( + T2 283 )  ( + T5 347 ) ) ( <= ( + T5 407 )( + T2 265 ) ) )
(or ( <= ( + T2 24 ) T6 ) ( <= ( + T6 83 ) T2 ) )
(or ( <= ( + T2 74 )  ( + T6 83 ) ) ( <= ( + T6 134 )( + T2 24 ) ) )
(or ( <= ( + T2 133 )  ( + T6 134 ) ) ( <= ( + T6 231 )( + T2 74 ) ) )
(or ( <= ( + T2 182 )  ( + T6 231 ) ) ( <= ( + T6 289 )( + T2 133 ) ) )
(or ( <= ( + T2 265 )  ( + T6 289 ) ) ( <= ( + T6 319 )( + T2 182 ) ) )
(or ( <= ( + T2 283 )  ( + T6 319 ) ) ( <= ( + T6 378 )( + T2 265 ) ) )
(or ( <= ( + T2 24 ) T7 ) ( <= ( + T7 53 ) T2 ) )
(or ( <= ( + T2 74 )  ( + T7 53 ) ) ( <= ( + T7 58 )( + T2 24 ) ) )
(or ( <= ( + T2 133 )  ( + T7 58 ) ) ( <= ( + T7 66 )( + T2 74 ) ) )
(or ( <= ( + T2 182 )  ( + T7 66 ) ) ( <= ( + T7 77 )( + T2 133 ) ) )
(or ( <= ( + T2 265 )  ( + T7 77 ) ) ( <= ( + T7 130 )( + T2 182 ) ) )
(or ( <= ( + T2 283 )  ( + T7 130 ) ) ( <= ( + T7 172 )( + T2 265 ) ) )
(or ( <= ( + T2 24 ) T8 ) ( <= ( + T8 29 ) T2 ) )
(or ( <= ( + T2 74 )  ( + T8 29 ) ) ( <= ( + T8 112 )( + T2 24 ) ) )
(or ( <= ( + T2 133 )  ( + T8 112 ) ) ( <= ( + T8 191 )( + T2 74 ) ) )
(or ( <= ( + T2 182 )  ( + T8 191 ) ) ( <= ( + T8 209 )( + T2 133 ) ) )
(or ( <= ( + T2 265 )  ( + T8 209 ) ) ( <= ( + T8 225 )( + T2 182 ) ) )
(or ( <= ( + T2 283 )  ( + T8 225 ) ) ( <= ( + T8 318 )( + T2 265 ) ) )
(or ( <= ( + T3 78 ) T4 ) ( <= ( + T4 80 ) T3 ) )
(or ( <= ( + T3 115 )  ( + T4 80 ) ) ( <= ( + T4 89 )( + T3 78 ) ) )
(or ( <= ( + T3 153 )  ( + T4 89 ) ) ( <= ( + T4 178 )( + T3 115 ) ) )
(or ( <= ( + T3 187 )  ( + T4 178 ) ) ( <= ( + T4 196 )( + T3 153 ) ) )
(or ( <= ( + T3 250 )  ( + T4 196 ) ) ( <= ( + T4 227 )( + T3 187 ) ) )
(or ( <= ( + T3 304 )  ( + T4 227 ) ) ( <= ( + T4 264 )( + T3 250 ) ) )
(or ( <= ( + T3 78 ) T5 ) ( <= ( + T5 85 ) T3 ) )
(or ( <= ( + T3 115 )  ( + T5 85 ) ) ( <= ( + T5 152 )( + T3 78 ) ) )
(or ( <= ( + T3 153 )  ( + T5 152 ) ) ( <= ( + T5 201 )( + T3 115 ) ) )
(or ( <= ( + T3 187 )  ( + T5 201 ) ) ( <= ( + T5 257 )( + T3 153 ) ) )
(or ( <= ( + T3 250 )  ( + T5 257 ) ) ( <= ( + T5 347 )( + T3 187 ) ) )
(or ( <= ( + T3 304 )  ( + T5 347 ) ) ( <= ( + T5 407 )( + T3 250 ) ) )
(or ( <= ( + T3 78 ) T6 ) ( <= ( + T6 83 ) T3 ) )
(or ( <= ( + T3 115 )  ( + T6 83 ) ) ( <= ( + T6 134 )( + T3 78 ) ) )
(or ( <= ( + T3 153 )  ( + T6 134 ) ) ( <= ( + T6 231 )( + T3 115 ) ) )
(or ( <= ( + T3 187 )  ( + T6 231 ) ) ( <= ( + T6 289 )( + T3 153 ) ) )
(or ( <= ( + T3 250 )  ( + T6 289 ) ) ( <= ( + T6 319 )( + T3 187 ) ) )
(or ( <= ( + T3 304 )  ( + T6 319 ) ) ( <= ( + T6 378 )( + T3 250 ) ) )
(or ( <= ( + T3 78 ) T7 ) ( <= ( + T7 53 ) T3 ) )
(or ( <= ( + T3 115 )  ( + T7 53 ) ) ( <= ( + T7 58 )( + T3 78 ) ) )
(or ( <= ( + T3 153 )  ( + T7 58 ) ) ( <= ( + T7 66 )( + T3 115 ) ) )
(or ( <= ( + T3 187 )  ( + T7 66 ) ) ( <= ( + T7 77 )( + T3 153 ) ) )
(or ( <= ( + T3 250 )  ( + T7 77 ) ) ( <= ( + T7 130 )( + T3 187 ) ) )
(or ( <= ( + T3 304 )  ( + T7 130 ) ) ( <= ( + T7 172 )( + T3 250 ) ) )
(or ( <= ( + T3 78 ) T8 ) ( <= ( + T8 29 ) T3 ) )
(or ( <= ( + T3 115 )  ( + T8 29 ) ) ( <= ( + T8 112 )( + T3 78 ) ) )
(or ( <= ( + T3 153 )  ( + T8 112 ) ) ( <= ( + T8 191 )( + T3 115 ) ) )
(or ( <= ( + T3 187 )  ( + T8 191 ) ) ( <= ( + T8 209 )( + T3 153 ) ) )
(or ( <= ( + T3 250 )  ( + T8 209 ) ) ( <= ( + T8 225 )( + T3 187 ) ) )
(or ( <= ( + T3 304 )  ( + T8 225 ) ) ( <= ( + T8 318 )( + T3 250 ) ) )
(or ( <= ( + T4 80 ) T5 ) ( <= ( + T5 85 ) T4 ) )
(or ( <= ( + T4 89 )  ( + T5 85 ) ) ( <= ( + T5 152 )( + T4 80 ) ) )
(or ( <= ( + T4 178 )  ( + T5 152 ) ) ( <= ( + T5 201 )( + T4 89 ) ) )
(or ( <= ( + T4 196 )  ( + T5 201 ) ) ( <= ( + T5 257 )( + T4 178 ) ) )
(or ( <= ( + T4 227 )  ( + T5 257 ) ) ( <= ( + T5 347 )( + T4 196 ) ) )
(or ( <= ( + T4 264 )  ( + T5 347 ) ) ( <= ( + T5 407 )( + T4 227 ) ) )
(or ( <= ( + T4 80 ) T6 ) ( <= ( + T6 83 ) T4 ) )
(or ( <= ( + T4 89 )  ( + T6 83 ) ) ( <= ( + T6 134 )( + T4 80 ) ) )
(or ( <= ( + T4 178 )  ( + T6 134 ) ) ( <= ( + T6 231 )( + T4 89 ) ) )
(or ( <= ( + T4 196 )  ( + T6 231 ) ) ( <= ( + T6 289 )( + T4 178 ) ) )
(or ( <= ( + T4 227 )  ( + T6 289 ) ) ( <= ( + T6 319 )( + T4 196 ) ) )
(or ( <= ( + T4 264 )  ( + T6 319 ) ) ( <= ( + T6 378 )( + T4 227 ) ) )
(or ( <= ( + T4 80 ) T7 ) ( <= ( + T7 53 ) T4 ) )
(or ( <= ( + T4 89 )  ( + T7 53 ) ) ( <= ( + T7 58 )( + T4 80 ) ) )
(or ( <= ( + T4 178 )  ( + T7 58 ) ) ( <= ( + T7 66 )( + T4 89 ) ) )
(or ( <= ( + T4 196 )  ( + T7 66 ) ) ( <= ( + T7 77 )( + T4 178 ) ) )
(or ( <= ( + T4 227 )  ( + T7 77 ) ) ( <= ( + T7 130 )( + T4 196 ) ) )
(or ( <= ( + T4 264 )  ( + T7 130 ) ) ( <= ( + T7 172 )( + T4 227 ) ) )
(or ( <= ( + T4 80 ) T8 ) ( <= ( + T8 29 ) T4 ) )
(or ( <= ( + T4 89 )  ( + T8 29 ) ) ( <= ( + T8 112 )( + T4 80 ) ) )
(or ( <= ( + T4 178 )  ( + T8 112 ) ) ( <= ( + T8 191 )( + T4 89 ) ) )
(or ( <= ( + T4 196 )  ( + T8 191 ) ) ( <= ( + T8 209 )( + T4 178 ) ) )
(or ( <= ( + T4 227 )  ( + T8 209 ) ) ( <= ( + T8 225 )( + T4 196 ) ) )
(or ( <= ( + T4 264 )  ( + T8 225 ) ) ( <= ( + T8 318 )( + T4 227 ) ) )
(or ( <= ( + T5 85 ) T6 ) ( <= ( + T6 83 ) T5 ) )
(or ( <= ( + T5 152 )  ( + T6 83 ) ) ( <= ( + T6 134 )( + T5 85 ) ) )
(or ( <= ( + T5 201 )  ( + T6 134 ) ) ( <= ( + T6 231 )( + T5 152 ) ) )
(or ( <= ( + T5 257 )  ( + T6 231 ) ) ( <= ( + T6 289 )( + T5 201 ) ) )
(or ( <= ( + T5 347 )  ( + T6 289 ) ) ( <= ( + T6 319 )( + T5 257 ) ) )
(or ( <= ( + T5 407 )  ( + T6 319 ) ) ( <= ( + T6 378 )( + T5 347 ) ) )
(or ( <= ( + T5 85 ) T7 ) ( <= ( + T7 53 ) T5 ) )
(or ( <= ( + T5 152 )  ( + T7 53 ) ) ( <= ( + T7 58 )( + T5 85 ) ) )
(or ( <= ( + T5 201 )  ( + T7 58 ) ) ( <= ( + T7 66 )( + T5 152 ) ) )
(or ( <= ( + T5 257 )  ( + T7 66 ) ) ( <= ( + T7 77 )( + T5 201 ) ) )
(or ( <= ( + T5 347 )  ( + T7 77 ) ) ( <= ( + T7 130 )( + T5 257 ) ) )
(or ( <= ( + T5 407 )  ( + T7 130 ) ) ( <= ( + T7 172 )( + T5 347 ) ) )
(or ( <= ( + T5 85 ) T8 ) ( <= ( + T8 29 ) T5 ) )
(or ( <= ( + T5 152 )  ( + T8 29 ) ) ( <= ( + T8 112 )( + T5 85 ) ) )
(or ( <= ( + T5 201 )  ( + T8 112 ) ) ( <= ( + T8 191 )( + T5 152 ) ) )
(or ( <= ( + T5 257 )  ( + T8 191 ) ) ( <= ( + T8 209 )( + T5 201 ) ) )
(or ( <= ( + T5 347 )  ( + T8 209 ) ) ( <= ( + T8 225 )( + T5 257 ) ) )
(or ( <= ( + T5 407 )  ( + T8 225 ) ) ( <= ( + T8 318 )( + T5 347 ) ) )
(or ( <= ( + T6 83 ) T7 ) ( <= ( + T7 53 ) T6 ) )
(or ( <= ( + T6 134 )  ( + T7 53 ) ) ( <= ( + T7 58 )( + T6 83 ) ) )
(or ( <= ( + T6 231 )  ( + T7 58 ) ) ( <= ( + T7 66 )( + T6 134 ) ) )
(or ( <= ( + T6 289 )  ( + T7 66 ) ) ( <= ( + T7 77 )( + T6 231 ) ) )
(or ( <= ( + T6 319 )  ( + T7 77 ) ) ( <= ( + T7 130 )( + T6 289 ) ) )
(or ( <= ( + T6 378 )  ( + T7 130 ) ) ( <= ( + T7 172 )( + T6 319 ) ) )
(or ( <= ( + T6 83 ) T8 ) ( <= ( + T8 29 ) T6 ) )
(or ( <= ( + T6 134 )  ( + T8 29 ) ) ( <= ( + T8 112 )( + T6 83 ) ) )
(or ( <= ( + T6 231 )  ( + T8 112 ) ) ( <= ( + T8 191 )( + T6 134 ) ) )
(or ( <= ( + T6 289 )  ( + T8 191 ) ) ( <= ( + T8 209 )( + T6 231 ) ) )
(or ( <= ( + T6 319 )  ( + T8 209 ) ) ( <= ( + T8 225 )( + T6 289 ) ) )
(or ( <= ( + T6 378 )  ( + T8 225 ) ) ( <= ( + T8 318 )( + T6 319 ) ) )
(or ( <= ( + T7 53 ) T8 ) ( <= ( + T8 29 ) T7 ) )
(or ( <= ( + T7 58 )  ( + T8 29 ) ) ( <= ( + T8 112 )( + T7 53 ) ) )
(or ( <= ( + T7 66 )  ( + T8 112 ) ) ( <= ( + T8 191 )( + T7 58 ) ) )
(or ( <= ( + T7 77 )  ( + T8 191 ) ) ( <= ( + T8 209 )( + T7 66 ) ) )
(or ( <= ( + T7 130 )  ( + T8 209 ) ) ( <= ( + T8 225 )( + T7 77 ) ) )
(or ( <= ( + T7 172 )  ( + T8 225 ) ) ( <= ( + T8 318 )( + T7 130 ) ) )
( <= ( + T1 253 ) Z)
( <= ( + T2 283 ) Z)
( <= ( + T3 304 ) Z)
( <= ( + T4 264 ) Z)
( <= ( + T5 407 ) Z)
( <= ( + T6 378 ) Z)
( <= ( + T7 172 ) Z)
( <= ( + T8 318 ) Z)
( >= T1 0 )
( >= T2 0 )
( >= T3 0 )
( >= T4 0 )
( >= T5 0 )
( >= T6 0 )
( >= T7 0 )
( >= T8 0 )
) )
(minimize Z)
(check-sat)